(set-info :smt-lib-version 2.6)
(set-logic QF_NIA)
(set-info :source |AProve team, see http://aprove.informatik.rwth-aachen.de/, submitted for SMT-COMP 2014|)
(set-info :category "industrial")
(set-info :status sat)
(declare-fun b__57 () Int)
(declare-fun a__2 () Int)
(declare-fun b__58 () Int)
(declare-fun a__17 () Int)
(declare-fun a__11 () Int)
(declare-fun a__20 () Int)
(declare-fun a__26 () Int)
(declare-fun a__36 () Int)
(declare-fun b__59 () Int)
(declare-fun a__14 () Int)
(declare-fun a__29 () Int)
(declare-fun a__33 () Int)
(declare-fun b__60 () Int)
(declare-fun a__43 () Int)
(declare-fun b__61 () Int)
(declare-fun a__24 () Int)
(declare-fun a__38 () Int)
(declare-fun a__40 () Int)
(declare-fun b__62 () Int)
(declare-fun a__47 () Int)
(declare-fun a__5 () Int)
(declare-fun a__7 () Int)
(declare-fun a__6 () Int)
(declare-fun a__8 () Int)
(declare-fun a__10 () Int)
(declare-fun a__9 () Int)
(declare-fun a__12 () Int)
(declare-fun a__13 () Int)
(declare-fun a__15 () Int)
(declare-fun a__16 () Int)
(declare-fun a__19 () Int)
(declare-fun a__21 () Int)
(declare-fun a__18 () Int)
(declare-fun a__22 () Int)
(declare-fun a__23 () Int)
(declare-fun a__25 () Int)
(declare-fun a__28 () Int)
(declare-fun a__30 () Int)
(declare-fun a__27 () Int)
(declare-fun a__31 () Int)
(declare-fun a__32 () Int)
(declare-fun a__35 () Int)
(declare-fun a__34 () Int)
(declare-fun a__37 () Int)
(declare-fun a__39 () Int)
(declare-fun a__42 () Int)
(declare-fun a__44 () Int)
(declare-fun a__41 () Int)
(declare-fun a__45 () Int)
(declare-fun a__46 () Int)
(declare-fun a__48 () Int)
(declare-fun a__49 () Int)
(declare-fun a__50 () Int)
(declare-fun a__51 () Int)
(declare-fun a__52 () Int)
(declare-fun a__53 () Int)
(declare-fun a__54 () Int)
(declare-fun a__55 () Int)
(declare-fun a__56 () Int)
(declare-fun a__3 () Int)
(declare-fun a__4 () Int)
(assert (and (>= (+ 1 (* (- 0 1) b__57)) 0) (= (+ (* b__57 a__2) (* (- 0 1) a__2)) 0) (>= (+ 1 (* (- 0 1) b__58)) 0) (= (+ (* b__58 a__2 a__17 a__11) (* (- 0 1) (* a__2 a__17 a__11))) 0) (= (+ (* b__58 a__2 a__20 a__11) (* (- 0 1) (* a__2 a__20 a__11))) 0) (= (+ (* b__58 a__2 a__26 a__11) (* (- 0 1) (* a__2 a__26 a__11))) 0) (= (+ (* b__58 a__2 a__36 a__11) (* (- 0 1) (* a__2 a__36 a__11))) 0) (>= (+ 1 (* (- 0 1) b__59)) 0) (= (+ (* b__59 a__2 a__14 a__11) (* (- 0 1) (* a__2 a__14 a__11))) 0) (= (+ (* b__59 a__2 a__29 a__11) (* (- 0 1) (* a__2 a__29 a__11))) 0) (= (+ (* b__59 a__2 a__33 a__11) (* (- 0 1) (* a__2 a__33 a__11))) 0) (>= (+ 1 (* (- 0 1) b__60)) 0) (= (+ (* b__60 a__2 a__43 a__11) (* (- 0 1) (* a__2 a__43 a__11))) 0) (>= (+ 1 (* (- 0 1) b__61)) 0) (= (+ (* b__61 a__2 a__24 a__11) (* (- 0 1) (* a__2 a__24 a__11))) 0) (= (+ (* b__61 a__2 a__38 a__11) (* (- 0 1) (* a__2 a__38 a__11))) 0) (= (+ (* b__61 a__2 a__40 a__11) (* (- 0 1) (* a__2 a__40 a__11))) 0) (>= (+ 1 (* (- 0 1) b__62)) 0) (= (+ (* b__62 a__2 a__47 a__11) (* (- 0 1) (* a__2 a__47 a__11))) 0) (>= (+ (* b__57 a__5) (* b__57 a__7 a__6) (* b__57 a__7 a__8 a__6) (* (- 0 1) (* b__57 a__10)) (* (- 0 1) (* b__57 a__7 a__11)) (* (- 0 1) (* b__57 a__7 a__9 a__11))) 0) (>= (+ (* b__57 a__8 a__8 a__6) (* (- 0 1) (* b__57 a__8 a__11))) 0) (>= (+ (* b__57 a__9 a__8 a__6) (* (- 0 1) (* b__57 a__8 a__9 a__11))) 0) (>= (+ (* b__57 a__9 a__6) (* (- 0 1) (* b__57 a__9 a__9 a__11))) 0) (>= (+ (* b__57 a__5) (* b__57 a__7 a__6) (* b__57 a__12 a__9 a__6) (* (- 0 1) (* b__57 a__10))) 0) (>= (+ (* b__57 a__8 a__6) (* (- 0 1) (* b__57 a__11))) 0) (>= (+ (* b__57 a__5) (* b__57 a__7 a__6) (* b__57 a__12 a__8 a__6) (* (- 0 1) (* b__57 a__10))) 0) (>= (+ (* b__57 a__9 a__6) (* (- 0 1) (* b__57 a__11))) 0) (>= (+ (* b__57 a__5) (* b__57 a__13 a__6) (* b__57 a__15 a__14 a__6) (* (- 0 1) (* b__57 a__10)) (* (- 0 1) (* b__57 a__15 a__11))) 0) (>= (+ (* b__57 a__5) (* b__57 a__16 a__6) (* b__57 a__15 a__17 a__6) (* (- 0 1) (* b__57 a__10)) (* (- 0 1) (* b__57 a__19 a__11)) (* (- 0 1) (* b__57 a__21 a__20 a__11))) 0) (>= (+ (* b__57 a__18 a__6) (* (- 0 1) (* b__57 a__22 a__20 a__11))) 0) (>= (+ (* b__57 a__5) (* b__57 a__19 a__6) (* b__57 a__15 a__20 a__6) (* (- 0 1) (* b__57 a__10)) (* (- 0 1) (* b__57 a__15 a__11))) 0) (>= (+ (* b__57 a__5) (* b__57 a__23 a__6) (* b__57 a__15 a__24 a__6) (* (- 0 1) (* b__57 a__10)) (* (- 0 1) (* b__57 a__15 a__11))) 0) (>= (+ (* b__57 a__5) (* b__57 a__25 a__6) (* b__57 a__15 a__26 a__6) (* (- 0 1) (* b__57 a__10)) (* (- 0 1) (* b__57 a__28 a__11)) (* (- 0 1) (* b__57 a__30 a__29 a__11))) 0) (>= (+ (* b__57 a__27 a__6) (* (- 0 1) (* b__57 a__31 a__29 a__11))) 0) (>= (+ (* b__57 a__5) (* b__57 a__28 a__6) (* b__57 a__15 a__29 a__6) (* (- 0 1) (* b__57 a__10)) (* (- 0 1) (* b__57 a__15 a__11))) 0) (>= (+ (* b__57 a__5) (* b__57 a__32 a__6) (* b__57 a__15 a__33 a__6) (* (- 0 1) (* b__57 a__10)) (* (- 0 1) (* b__57 a__35 a__11)) (* (- 0 1) (* b__57 a__21 a__36 a__11))) 0) (>= (+ (* b__57 a__34 a__6) (* (- 0 1) (* b__57 a__22 a__36 a__11))) 0) (>= (+ (* b__57 a__5) (* b__57 a__35 a__6) (* b__57 a__15 a__36 a__6) (* (- 0 1) (* b__57 a__10)) (* (- 0 1) (* b__57 a__15 a__11))) 0) (>= (+ (* b__57 a__5) (* b__57 a__37 a__6) (* b__57 a__15 a__38 a__6) (* (- 0 1) (* b__57 a__10)) (* (- 0 1) (* b__57 a__15 a__11))) 0) (>= (+ (* b__57 a__5) (* b__57 a__39 a__6) (* b__57 a__15 a__40 a__6) (* (- 0 1) (* b__57 a__10)) (* (- 0 1) (* b__57 a__42 a__11)) (* (- 0 1) (* b__57 a__44 a__43 a__11))) 0) (>= (+ (* b__57 a__41 a__6) (* (- 0 1) (* b__57 a__45 a__43 a__11))) 0) (>= (+ (* b__57 a__5) (* b__57 a__42 a__6) (* b__57 a__15 a__43 a__6) (* (- 0 1) (* b__57 a__10)) (* (- 0 1) (* b__57 a__15 a__11))) 0) (>= (+ (* b__57 a__5) (* b__57 a__46 a__6) (* b__57 a__15 a__47 a__6) (* (- 0 1) (* b__57 a__10)) (* (- 0 1) (* b__57 a__15 a__11))) 0) (>= (+ (* b__57 a__5) (* b__57 a__21 a__6) (* (- 0 1) (* b__57 a__10)) (* (- 0 1) (* b__57 a__13 a__11)) (* (- 0 1) (* b__57 a__30 a__14 a__11))) 0) (>= (+ (* b__57 a__22 a__6) (* (- 0 1) (* b__57 a__31 a__14 a__11))) 0) (>= (+ (* b__57 a__5) (* b__57 a__21 a__6) (* b__57 a__12 a__22 a__6) (* (- 0 1) (* b__57 a__10)) (* (- 0 1) (* b__57 a__15 a__11))) 0) (>= (+ (* b__57 a__5) (* b__57 a__21 a__6) (* b__57 a__7 a__22 a__6) (* (- 0 1) (* b__57 a__10)) (* (- 0 1) (* b__57 a__16 a__11)) (* (- 0 1) (* b__57 a__21 a__17 a__11))) 0) (>= (+ (* b__57 a__8 a__22 a__6) (* (- 0 1) (* b__57 a__22 a__17 a__11))) 0) (>= (+ (* b__57 a__9 a__22 a__6) (* (- 0 1) (* b__57 a__18 a__11))) 0) (>= (+ (* b__57 a__5) (* b__57 a__30 a__6) (* (- 0 1) (* b__57 a__10)) (* (- 0 1) (* b__57 a__23 a__11)) (* (- 0 1) (* b__57 a__48 a__24 a__11))) 0) (>= (+ (* b__57 a__31 a__6) (* (- 0 1) (* b__57 a__49 a__24 a__11))) 0) (>= (+ (* b__57 a__5) (* b__57 a__30 a__6) (* b__57 a__7 a__31 a__6) (* (- 0 1) (* b__57 a__10)) (* (- 0 1) (* b__57 a__25 a__11)) (* (- 0 1) (* b__57 a__21 a__26 a__11))) 0) (>= (+ (* b__57 a__8 a__31 a__6) (* (- 0 1) (* b__57 a__22 a__26 a__11))) 0) (>= (+ (* b__57 a__9 a__31 a__6) (* (- 0 1) (* b__57 a__27 a__11))) 0) (>= (+ (* b__57 a__5) (* b__57 a__30 a__6) (* b__57 a__7 a__31 a__6) (* (- 0 1) (* b__57 a__10)) (* (- 0 1) (* b__57 a__32 a__11)) (* (- 0 1) (* b__57 a__30 a__33 a__11))) 0) (>= (+ (* b__57 a__8 a__31 a__6) (* (- 0 1) (* b__57 a__31 a__33 a__11))) 0) (>= (+ (* b__57 a__9 a__31 a__6) (* (- 0 1) (* b__57 a__34 a__11))) 0) (>= (+ (* b__57 a__5) (* b__57 a__50 a__6) (* (- 0 1) (* b__57 a__10)) (* (- 0 1) (* b__57 a__37 a__11)) (* (- 0 1) (* b__57 a__48 a__38 a__11))) 0) (>= (+ (* b__57 a__51 a__6) (* (- 0 1) (* b__57 a__49 a__38 a__11))) 0) (>= (+ (* b__57 a__5) (* b__57 a__50 a__6) (* b__57 a__7 a__51 a__6) (* b__57 a__7 a__9 a__51 a__6) (* (- 0 1) (* b__57 a__10)) (* (- 0 1) (* b__57 a__39 a__11)) (* (- 0 1) (* b__57 a__48 a__40 a__11))) 0) (>= (+ (* b__57 a__8 a__51 a__6) (* b__57 a__9 a__9 a__51 a__6) (* (- 0 1) (* b__57 a__49 a__40 a__11))) 0) (>= (+ (* b__57 a__8 a__9 a__51 a__6) (* (- 0 1) (* b__57 a__41 a__11))) 0) (>= (+ (* b__57 a__5) (* b__57 a__44 a__6) (* (- 0 1) (* b__57 a__10)) (* (- 0 1) (* b__57 a__46 a__11)) (* (- 0 1) (* b__57 a__50 a__47 a__11))) 0) (>= (+ (* b__57 a__45 a__6) (* (- 0 1) (* b__57 a__51 a__47 a__11))) 0) (>= (+ (* b__57 a__5) (* b__57 a__44 a__6) (* b__57 a__12 a__45 a__6) (* (- 0 1) (* b__57 a__10)) (* (- 0 1) (* b__57 a__15 a__11))) 0) (>= (+ (* b__57 a__5) (* b__57 a__48 a__6) (* b__57 a__52 a__49 a__6) (* (- 0 1) (* b__57 a__10)) (* (- 0 1) (* b__57 a__15 a__11))) 0) (>= (+ (* b__57 a__5) (* b__57 a__48 a__6) (* b__57 a__53 a__49 a__6) (* (- 0 1) (* b__57 a__10)) (* (- 0 1) (* b__57 a__15 a__11))) 0) (>= (+ (* b__57 a__5) (* b__57 a__48 a__6) (* b__57 a__54 a__49 a__6) (* (- 0 1) (* b__57 a__10)) (* (- 0 1) (* b__57 a__15 a__11))) 0) (>= (+ (* b__57 a__5) (* b__57 a__48 a__6) (* b__57 a__55 a__49 a__6) (* (- 0 1) (* b__57 a__10)) (* (- 0 1) (* b__57 a__15 a__11))) 0) (>= (+ (* b__57 a__5) (* b__57 a__48 a__6) (* b__57 a__56 a__49 a__6) (* (- 0 1) (* b__57 a__10)) (* (- 0 1) (* b__57 a__15 a__11))) 0) (>= (+ (* b__57 a__5) (* b__57 a__7 a__6) (* (- 0 1) (* b__57 a__7)) (* (- 0 1) (* b__57 a__5 a__8))) 0) (>= (+ (* b__57 a__9 a__6) (* (- 0 1) (* b__57 a__9))) 0) (>= (+ (* b__57 a__5) (* b__57 a__7 a__6) (* (- 0 1) (* b__57 a__7)) (* (- 0 1) (* b__57 a__5 a__9))) 0) (>= (+ (* b__57 a__8 a__6) (* (- 0 1) (* b__57 a__8))) 0) (>= (+ (* b__57 a__5) (* b__57 a__13 a__6) (* (- 0 1) (* b__57 a__13)) (* (- 0 1) (* b__57 a__5 a__14))) 0) (>= (+ (* b__57 a__5) (* b__57 a__16 a__6) (* (- 0 1) (* b__57 a__16)) (* (- 0 1) (* b__57 a__5 a__17))) 0) (>= (+ (* b__57 a__18 a__6) (* (- 0 1) (* b__57 a__18))) 0) (>= (+ (* b__57 a__5) (* b__57 a__19 a__6) (* (- 0 1) (* b__57 a__19)) (* (- 0 1) (* b__57 a__5 a__20))) 0) (>= (+ (* b__57 a__5) (* b__57 a__23 a__6) (* (- 0 1) (* b__57 a__23)) (* (- 0 1) (* b__57 a__5 a__24))) 0) (>= (+ (* b__57 a__5) (* b__57 a__25 a__6) (* (- 0 1) (* b__57 a__25)) (* (- 0 1) (* b__57 a__5 a__26))) 0) (>= (+ (* b__57 a__27 a__6) (* (- 0 1) (* b__57 a__27))) 0) (>= (+ (* b__57 a__5) (* b__57 a__28 a__6) (* (- 0 1) (* b__57 a__28)) (* (- 0 1) (* b__57 a__5 a__29))) 0) (>= (+ (* b__57 a__5) (* b__57 a__32 a__6) (* (- 0 1) (* b__57 a__32)) (* (- 0 1) (* b__57 a__5 a__33))) 0) (>= (+ (* b__57 a__34 a__6) (* (- 0 1) (* b__57 a__34))) 0) (>= (+ (* b__57 a__5) (* b__57 a__35 a__6) (* (- 0 1) (* b__57 a__35)) (* (- 0 1) (* b__57 a__5 a__36))) 0) (>= (+ (* b__57 a__5) (* b__57 a__37 a__6) (* (- 0 1) (* b__57 a__37)) (* (- 0 1) (* b__57 a__5 a__38))) 0) (>= (+ (* b__57 a__5) (* b__57 a__39 a__6) (* (- 0 1) (* b__57 a__39)) (* (- 0 1) (* b__57 a__5 a__40))) 0) (>= (+ (* b__57 a__41 a__6) (* (- 0 1) (* b__57 a__41))) 0) (>= (+ (* b__57 a__5) (* b__57 a__42 a__6) (* (- 0 1) (* b__57 a__42)) (* (- 0 1) (* b__57 a__5 a__43))) 0) (>= (+ (* b__57 a__5) (* b__57 a__46 a__6) (* (- 0 1) (* b__57 a__46)) (* (- 0 1) (* b__57 a__5 a__47))) 0) (>= (+ (* b__57 a__7) (* b__57 a__10 a__8) (* (- 0 1) (* b__57 a__10)) (* (- 0 1) (* b__57 a__7 a__11))) 0) (>= (+ (* b__57 a__9) (* (- 0 1) (* b__57 a__9 a__11))) 0) (>= (+ (* b__57 a__7) (* b__57 a__10 a__9) (* (- 0 1) (* b__57 a__10)) (* (- 0 1) (* b__57 a__7 a__11))) 0) (>= (+ (* b__57 a__8) (* (- 0 1) (* b__57 a__8 a__11))) 0) (>= (+ (* b__57 a__7) (* b__57 a__3 a__8) (* b__57 a__3 a__9) (* (- 0 1) (* b__57 a__3)) (* (- 0 1) (* b__57 a__7 a__4))) 0) (>= (+ (* b__57 a__13) (* b__57 a__10 a__14) (* (- 0 1) (* b__57 a__10)) (* (- 0 1) (* b__57 a__13 a__11))) 0) (>= (+ (* b__57 a__13) (* b__57 a__3 a__14) (* (- 0 1) (* b__57 a__3)) (* (- 0 1) (* b__57 a__13 a__4))) 0) (>= (+ (* b__57 a__16) (* b__57 a__10 a__17) (* (- 0 1) (* b__57 a__10)) (* (- 0 1) (* b__57 a__16 a__11))) 0) (>= (+ (* b__57 a__18) (* (- 0 1) (* b__57 a__18 a__11))) 0) (>= (+ (* b__57 a__16) (* b__57 a__3 a__17) (* b__57 a__3 a__18) (* (- 0 1) (* b__57 a__3)) (* (- 0 1) (* b__57 a__16 a__4))) 0) (>= (+ (* b__57 a__19) (* b__57 a__10 a__20) (* (- 0 1) (* b__57 a__10)) (* (- 0 1) (* b__57 a__19 a__11))) 0) (>= (+ (* b__57 a__19) (* b__57 a__3 a__20) (* (- 0 1) (* b__57 a__3)) (* (- 0 1) (* b__57 a__19 a__4))) 0) (>= (+ (* b__57 a__23) (* b__57 a__10 a__24) (* (- 0 1) (* b__57 a__10)) (* (- 0 1) (* b__57 a__23 a__11))) 0) (>= (+ (* b__57 a__23) (* b__57 a__3 a__24) (* (- 0 1) (* b__57 a__3)) (* (- 0 1) (* b__57 a__23 a__4))) 0) (>= (+ (* b__57 a__25) (* b__57 a__10 a__26) (* (- 0 1) (* b__57 a__10)) (* (- 0 1) (* b__57 a__25 a__11))) 0) (>= (+ (* b__57 a__27) (* (- 0 1) (* b__57 a__27 a__11))) 0) (>= (+ (* b__57 a__25) (* b__57 a__3 a__26) (* b__57 a__3 a__27) (* (- 0 1) (* b__57 a__3)) (* (- 0 1) (* b__57 a__25 a__4))) 0) (>= (+ (* b__57 a__28) (* b__57 a__10 a__29) (* (- 0 1) (* b__57 a__10)) (* (- 0 1) (* b__57 a__28 a__11))) 0) (>= (+ (* b__57 a__28) (* b__57 a__3 a__29) (* (- 0 1) (* b__57 a__3)) (* (- 0 1) (* b__57 a__28 a__4))) 0) (>= (+ (* b__57 a__32) (* b__57 a__10 a__33) (* (- 0 1) (* b__57 a__10)) (* (- 0 1) (* b__57 a__32 a__11))) 0) (>= (+ (* b__57 a__34) (* (- 0 1) (* b__57 a__34 a__11))) 0) (>= (+ (* b__57 a__32) (* b__57 a__3 a__33) (* b__57 a__3 a__34) (* (- 0 1) (* b__57 a__3)) (* (- 0 1) (* b__57 a__32 a__4))) 0) (>= (+ (* b__57 a__35) (* b__57 a__10 a__36) (* (- 0 1) (* b__57 a__10)) (* (- 0 1) (* b__57 a__35 a__11))) 0) (>= (+ (* b__57 a__35) (* b__57 a__3 a__36) (* (- 0 1) (* b__57 a__3)) (* (- 0 1) (* b__57 a__35 a__4))) 0) (>= (+ (* b__57 a__37) (* b__57 a__10 a__38) (* (- 0 1) (* b__57 a__10)) (* (- 0 1) (* b__57 a__37 a__11))) 0) (>= (+ (* b__57 a__37) (* b__57 a__3 a__38) (* (- 0 1) (* b__57 a__3)) (* (- 0 1) (* b__57 a__37 a__4))) 0) (>= (+ (* b__57 a__39) (* b__57 a__10 a__40) (* (- 0 1) (* b__57 a__10)) (* (- 0 1) (* b__57 a__39 a__11))) 0) (>= (+ (* b__57 a__41) (* (- 0 1) (* b__57 a__41 a__11))) 0) (>= (+ (* b__57 a__39) (* b__57 a__3 a__40) (* b__57 a__3 a__41) (* (- 0 1) (* b__57 a__3)) (* (- 0 1) (* b__57 a__39 a__4))) 0) (>= (+ (* b__57 a__42) (* b__57 a__10 a__43) (* (- 0 1) (* b__57 a__10)) (* (- 0 1) (* b__57 a__42 a__11))) 0) (>= (+ (* b__57 a__42) (* b__57 a__3 a__43) (* (- 0 1) (* b__57 a__3)) (* (- 0 1) (* b__57 a__42 a__4))) 0) (>= (+ (* b__57 a__46) (* b__57 a__10 a__47) (* (- 0 1) (* b__57 a__10)) (* (- 0 1) (* b__57 a__46 a__11))) 0) (>= (+ (* b__57 a__46) (* b__57 a__3 a__47) (* (- 0 1) (* b__57 a__3)) (* (- 0 1) (* b__57 a__46 a__4))) 0) (>= (+ (* b__58 a__21) (* b__58 a__3 a__22) (* (- 0 1) (* b__58 a__3)) (* (- 0 1) (* b__58 a__21 a__4))) 0) (>= (+ (* b__59 a__30) (* b__59 a__3 a__31) (* (- 0 1) (* b__59 a__3)) (* (- 0 1) (* b__59 a__30 a__4))) 0) (>= (+ (* b__60 a__44) (* b__60 a__3 a__45) (* (- 0 1) (* b__60 a__3)) (* (- 0 1) (* b__60 a__44 a__4))) 0) (>= (+ (* b__61 a__48) (* b__61 a__3 a__49) (* (- 0 1) (* b__61 a__3)) (* (- 0 1) (* b__61 a__48 a__4))) 0) (>= (+ (* b__62 a__50) (* b__62 a__3 a__51) (* (- 0 1) (* b__62 a__3)) (* (- 0 1) (* b__62 a__50 a__4))) 0) (>= (+ (* a__3 a__2) (* (- 0 1) (* a__5 a__2)) (- 0 1)) 0) (>= (+ (* a__4 a__2) (* (- 0 1) (* a__6 a__2))) 0) (>= b__57 0) (>= 1 b__57) (>= a__2 0) (>= b__58 0) (>= 1 b__58) (>= a__17 0) (>= a__11 0) (>= a__20 0) (>= a__26 0) (>= a__36 0) (>= b__59 0) (>= 1 b__59) (>= a__14 0) (>= a__29 0) (>= a__33 0) (>= b__60 0) (>= 1 b__60) (>= a__43 0) (>= b__61 0) (>= 1 b__61) (>= a__24 0) (>= a__38 0) (>= a__40 0) (>= b__62 0) (>= 1 b__62) (>= a__47 0) (>= a__5 0) (>= a__7 0) (>= a__6 0) (>= a__8 0) (>= a__10 0) (>= a__9 0) (>= a__12 0) (>= a__13 0) (>= a__15 0) (>= a__16 0) (>= a__19 0) (>= a__21 0) (>= a__18 0) (>= a__22 0) (>= a__23 0) (>= a__25 0) (>= a__28 0) (>= a__30 0) (>= a__27 0) (>= a__31 0) (>= a__32 0) (>= a__35 0) (>= a__34 0) (>= a__37 0) (>= a__39 0) (>= a__42 0) (>= a__44 0) (>= a__41 0) (>= a__45 0) (>= a__46 0) (>= a__48 0) (>= a__49 0) (>= a__50 0) (>= a__51 0) (>= a__52 0) (>= a__53 0) (>= a__54 0) (>= a__55 0) (>= a__56 0) (>= a__3 0) (>= a__4 0)))
(check-sat)
;;(get-assignment)
;;(get-model)
(exit)
